--- Job tspmod.gms Start 07/03/20 20:32:24 31.1.0 r55b6ce3 WEX-WEI x86 64bit/MS Windows
--- Applying:
    E:\31.1\gmsprmNT.txt
--- GAMS Parameters defined
    Input C:\Users\hasee\Documents\GitHub\GAMS-MIRO\tsp\tspmod.gms
    ScrDir C:\Users\hasee\Documents\GitHub\GAMS-MIRO\tsp\225a\
    SysDir E:\31.1\
    CurDir C:\Users\hasee\Documents\GitHub\GAMS-MIRO\tsp\
    LogOption 3
    Trace C:\Users\hasee\Documents\GitHub\GAMS-MIRO\tsp\_sys_trace_tspmod.trc
    InputDir1 C:\Users\hasee\Documents\GitHub\GAMS-MIRO\tsp\
    TraceOpt 3
    ExecMode 0
    LstTitleLeftAligned 1
    IDCGDXInput _miro_gdxin_.gdx
    IDCGDXOutput _miro_gdxout_.gdx
GAMS 31.1.0   Copyright (C) 1987-2020 GAMS Development. All rights reserved
*** License has expired 24 days ago
Licensee: CS526 Advanced Linear Programming              G200210/0001AS-GEN
          Course License UW-Madison, Prof Ferris, Spring 2020        DCE515
          E:\31.1\gamslice.txt
          Evaluation license: Not for commercial or production use
--- Starting compilation
--- tspmod.gms(5) 2 Mb
--- . set.csv(1) 3 Mb
--- tspmod.gms(10) 3 Mb
--- GDXin=C:\Users\hasee\Documents\GitHub\GAMS-MIRO\tsp\_miro_gdxin_.gdx
--- tspmod.gms(13) 3 Mb
--- Ignoring $include in externalInput section
--- tspmod.gms(78) 3 Mb
--- Starting execution: elapsed 0:00:00.011
--- tspmod.gms(55) 4 Mb
--- Generating MIP model tsp
--- tspmod.gms(56) 5 Mb
---   2,259 rows  2,352 columns  13,303 non-zeroes
---   2,256 discrete-columns
--- Executing CPLEX: elapsed 0:00:00.061

IBM ILOG CPLEX   31.1.0 r55b6ce3 Released May 01, 2020 WEI x86 64bit/MS Window
--- GAMS/Cplex licensed for continuous and discrete problems.
Cplex 12.10.0.0

Reading parameter(s) from "C:\Users\hasee\Documents\GitHub\GAMS-MIRO\tsp\cplex.opt"
>>  lpmethod 4
Finished reading from "C:\Users\hasee\Documents\GitHub\GAMS-MIRO\tsp\cplex.opt"
Reading data...
Starting Cplex...
Space for names approximately 0.16 Mb
Use option 'names no' to turn use of names off
Version identifier: 12.10.0.0 | 2019-11-26 | 843d4de2ae
CPXPARAM_Advance                                 0
CPXPARAM_LPMethod                                4
CPXPARAM_Threads                                 1
CPXPARAM_Parallel                                1
CPXPARAM_MIP_Display                             4
CPXPARAM_Barrier_Limits_Iteration                2000000000
CPXPARAM_TimeLimit                               1000
CPXPARAM_Tune_TimeLimit                          200
CPXPARAM_MIP_Tolerances_AbsMIPGap                0
CPXPARAM_MIP_Tolerances_MIPGap                   0.01
CPXPARAM_WorkDir                                 "C:\Users\hasee\Documents\GitHub\GAMS-MIRO\tsp\225a\"
Tried aggregator 1 time.
MIP Presolve eliminated 1 rows and 49 columns.
Reduced MIP has 2258 rows, 2303 columns, and 10998 nonzeros.
Reduced MIP has 2256 binaries, 0 generals, 0 SOSs, and 0 indicators.
Presolve time = 0.02 sec. (5.73 ticks)
Found incumbent of value 682947.439140 after 0.03 sec. (16.85 ticks)
Probing time = 0.00 sec. (3.21 ticks)
Tried aggregator 1 time.
Detecting symmetries...
Reduced MIP has 2258 rows, 2303 columns, and 10998 nonzeros.
Reduced MIP has 2256 binaries, 0 generals, 0 SOSs, and 0 indicators.
Presolve time = 0.02 sec. (7.27 ticks)
Probing time = 0.00 sec. (3.20 ticks)
Clique table members: 1149.
MIP emphasis: balance optimality and feasibility.
MIP search method: dynamic search.
Parallel mode: none, using 1 thread.
Tried aggregator 1 time.
No LP presolve or aggregator reductions.
Presolve time = 0.00 sec. (1.36 ticks)
Initializing dual steep norms . . .

Iteration log . . .
Iteration:     1   Dual objective     =        554396.475475
Iteration:   166   Dual objective     =        657517.005516
Iteration:   355   Dual objective     =        665320.778103
Iteration:   557   Dual objective     =        667982.219165
Iteration:   619   Dual objective     =        667991.575799
Root relaxation solution time = 0.03 sec. (17.75 ticks)

        Nodes                                         Cuts/
   Node  Left     Objective  IInf  Best Integer    Best Bound    ItCnt     Gap

*     0+    0                       682947.4391        0.0000           100.00%
Found incumbent of value 682947.439140 after 0.09 sec. (55.69 ticks)
      0     0   667991.7560    47   682947.4391   667991.7560      631    2.19%
      0     0   667999.1936    47   682947.4391     Cuts: 124      705    2.19%
      0     0   668000.8721    47   682947.4391     Cuts: 117      769    2.19%
      0     0   668002.3655    47   682947.4391      Cuts: 99      827    2.19%
      0     0   668002.8063    47   682947.4391      Cuts: 44      851    2.19%
      0     0   668002.8425    47   682947.4391      Cuts: 22      872    2.19%
Detecting symmetries...
*     0+    0                       672390.9624   668002.8425             0.65%
Found incumbent of value 672390.962363 after 0.66 sec. (461.06 ticks)
      0     0  -1.00000e+75     0   672390.9624   668002.8425      872    0.65%

Clique cuts applied:  6
Cover cuts applied:  1
Implied bound cuts applied:  4
Flow cuts applied:  2
Mixed integer rounding cuts applied:  18
Zero-half cuts applied:  4
Multi commodity flow cuts applied:  2
Gomory fractional cuts applied:  6

Root node processing (before b&c):
  Real time             =    0.66 sec. (462.12 ticks)
Sequential b&c:
  Real time             =    0.00 sec. (0.00 ticks)
                          ------------
Total (root+branch&cut) =    0.66 sec. (462.12 ticks)
MIP status(102): integer optimal, tolerance
Cplex Time: 0.66sec (det. 462.13 ticks)
Fixing integer variables, and solving final LP...
Version identifier: 12.10.0.0 | 2019-11-26 | 843d4de2ae
CPXPARAM_Advance                                 2
CPXPARAM_LPMethod                                4
CPXPARAM_Threads                                 1
CPXPARAM_Parallel                                1
CPXPARAM_MIP_Display                             4
CPXPARAM_Barrier_Limits_Iteration                2000000000
CPXPARAM_TimeLimit                               1000
CPXPARAM_Tune_TimeLimit                          200
CPXPARAM_MIP_Tolerances_AbsMIPGap                0
CPXPARAM_MIP_Tolerances_MIPGap                   0.01
CPXPARAM_WorkDir                                 "C:\Users\hasee\Documents\GitHub\GAMS-MIRO\tsp\225a\"
Tried aggregator 1 time.
DUAL formed by presolve
LP Presolve eliminated 97 rows and 2305 columns.
Reduced LP has 47 rows, 2256 columns, and 4418 nonzeros.
Presolve time = 0.02 sec. (4.06 ticks)
Parallel mode: none, using 1 thread for barrier
Number of nonzeros in lower triangle of A*A' = 1081
Using Approximate Minimum Degree ordering
Total time for automatic ordering = 0.00 sec. (0.04 ticks)
Summary statistics for Cholesky factor:
  Rows in Factor            = 47
  Integer space required    = 47
  Total non-zeros in factor = 1128
  Total FP ops to factor    = 35720
 Itn      Primal Obj        Dual Obj  Prim Inf Upper Inf  Dual Inf Inf Ratio
   0   5.7284496e+05   6.7239096e+05  0.00e+00  0.00e+00  2.80e+02  1.00e+00
   1   6.4422453e+05   6.7239096e+05  7.56e-13  0.00e+00  1.40e+02  1.57e+00
   2   6.4469071e+05   6.7239096e+05  6.57e-09  0.00e+00  1.15e+02  6.45e-01
   3   6.6999645e+05   6.7239096e+05  5.68e-10  0.00e+00  3.59e+01  2.00e+00
   4   6.7218848e+05   6.7239096e+05  1.77e-10  0.00e+00  1.99e+01  3.74e+00
   5   6.7238409e+05   6.7239096e+05  6.33e-11  0.00e+00  2.07e+00  3.95e+01
   6   6.7239095e+05   6.7239096e+05  5.71e-12  0.00e+00  1.75e-03  4.26e+04
   7   6.7239096e+05   6.7239096e+05  1.77e-11  0.00e+00  2.23e-07  8.52e+08
   8   6.7239096e+05   6.7239096e+05  4.61e-10  0.00e+00  3.42e-11  8.47e+12
   9   6.7239096e+05   6.7239096e+05  2.26e-13  0.00e+00  1.20e-11  4.00e+16
Barrier time = 0.00 sec. (6.55 ticks)

Primal crossover.
  Primal:  Fixing 1 variable.
        0 PMoves:  Infeasibility  0.00000000e+00  Objective  6.72390962e+05
  Primal:  Pushed 1, exchanged 0.
  Dual:  Fixing 1 variable.
        0 DMoves:  Infeasibility  0.00000000e+00  Objective  6.72390962e+05
  Dual:  Pushed 0, exchanged 1.
Total crossover time = 0.00 sec. (1.42 ticks)

Total time on 1 threads = 0.02 sec. (12.12 ticks)
Fixed MIP status(1): optimal
Cplex Time: 0.02sec (det. 12.12 ticks)

Solution satisfies tolerances.

MIP Solution:       672390.962363    (872 iterations, 0 nodes)
Final Solve:        672390.962363    (0 iterations)

Best possible:      668002.842451
Absolute gap:         4388.119912
Relative gap:            0.006526

--- Restarting execution
--- tspmod.gms(56) 2 Mb
--- Reading solution for model tsp
--- tspmod.gms(79) 4 Mb
--- GDX File C:\Users\hasee\Documents\GitHub\GAMS-MIRO\tsp\_miro_gdxout_.gdx
*** Status: Normal completion
--- Job tspmod.gms Stop 07/03/20 20:32:25 elapsed 0:00:00.941
